
(set-logic ALL) 

(declare-datatype MyList ((Nil) (Cons (head Real) (tail MyList)) )) 
(declare-fun l0 () MyList) 
(declare-fun l1 () MyList) 
(declare-fun l2 () MyList) 
(declare-fun l3 () MyList) 
(declare-fun i0 () Real) 
(declare-fun i1 () Real) 
(assert (not (= l0 l0)) )
(assert (or (= l0 Nil) (is-Nil l0) (= l2 Nil) (= l1 l2)) )
(assert (or (= l0 Nil) (= l1 Nil) (= l2 Nil)) )
(assert (is-Nil l0) )
(assert (not (= l2 l1)) )
(assert (not (is-Cons Nil)) )
(assert (not (= l3 l0)) )
(assert (not (= l2 l1)) )
(check-sat)
